proyfinal/src/viki/013/experimentInOfficeAgust.take6.output/49adb4ff-9e7e-4cc6-b00f-7ec7fd1385c3.als.out
Reading from standard input... Use '--help' for help.
============================[ Problem Statistics ]=============================
|                                                                             |
|  Number of variables:         87638                                         |
|  Number of clauses:          161767                                         |
|  Parse time:                   0.03 s                                       |
|                                                                             |
============================[ Search Statistics ]==============================
| Conflicts |          ORIGINAL         |          LEARNT          | Progress |
|           |    Vars  Clauses Literals |    Limit  Clauses Lit/Cl |          |
===============================================================================
|       100 |   61951   103685   259007 |    38017      100     25 | 29.310 % |
|       250 |   61876   103381   258299 |    41819      244     65 | 29.396 % |
|       475 |   48336    66045   166625 |    46001      460     47 | 44.846 % |
|       812 |   48228    65161   164506 |    50601      791     40 | 44.969 % |
|      1318 |   48170    64869   163796 |    55661     1287     41 | 45.035 % |
|      2077 |   48065    64349   162515 |    61228     2035     46 | 45.155 % |
|      3216 |   48065    64349   162515 |    67350     3174     49 | 45.155 % |
|      4924 |   47758    62995   159212 |    74086     4863     46 | 45.505 % |
|      7486 |   47596    62720   158574 |    81494     7236     44 | 45.690 % |
===============================================================================
restarts              : 46
conflicts             : 10764          (8396 /sec)
decisions             : 31280          (0.00 % random) (24397 /sec)
propagations          : 15393654       (12006463 /sec)
conflict literals     : 438861         (42.44 % deleted)
Memory used           : 25.14 MB
CPU time              : 1.28211 s

UNSATISFIABLE
